5
4
40
1 1.3 1.55 1.75 2.1
24 19 36 24 9 45 37 9 42 44 24 36 48 15 48 12 42 17 13 28 32 43 48 30 39 21 40 21 49 6 12 29 14 31 41 37 44 25 44 7 15 10 23 40 35 8 18 13 34 21 13 5 18 48 8 27 39 43 14 37 35 43 19 34 46 45 30 34 25 46 34 8 29 35 48 32 35 21 39 23 19 40 32 29 12 16 39 19 18 19 46 42 14 42 24 29 23 14 13 39 42 49 19 42 6 36 26 43 45 34 24 30 37 47 9 42 5 9 40 41 48 13 15 42 27 9 17 31 35 8 30 5 7 48 19 40 17 43 10 11 46 41 28 18 38 47 48 29 8 24 43 19 15 47 29 43 35 24 6 32 